0 0 0 0
0 1 0 0
0 2 2 0
0 3 0 0
0 4 1 1
0 5 0 3
0 6 1 3
0 7 1 4
0 8 0 10
0 9 2 4
0 10 1 4
0 11 0 10
0 12 0 13
0 13 2 14
0 14 0 15
0 15 2 10
0 16 0 19
0 17 2 3
0 18 0 18
0 19 0 11
0 20 0 12
0 21 2 13
0 22 2 13
0 23 1 14
0 24 2 22
0 25 0 18
0 26 1 20
0 27 0 22
0 28 0 21
0 29 0 24
0 30 0 25
0 31 0 26
